TYPE : Vertex Cover
DIMENSION: 29
EDGE_DATA_SECTION:
0 1
0 2
0 5
0 9
0 10
0 11
0 24
0 25
0 26
1 3
1 7
1 11
1 13
1 15
1 21
1 26
1 27
1 28
2 4
2 11
2 17
2 18
2 22
3 6
3 8
3 10
3 15
3 16
3 19
3 22
3 24
3 25
4 11
4 16
4 20
4 23
4 27
5 6
5 8
5 9
5 11
5 14
5 15
5 20
5 27
6 7
6 18
6 23
6 24
7 12
7 13
7 18
7 19
7 20
7 26
7 27
8 10
8 19
8 23
8 25
9 18
9 21
9 23
9 24
9 25
9 26
10 13
10 16
10 21
11 12
11 17
11 18
11 19
11 23
11 26
11 27
12 18
12 28
13 18
13 24
13 26
14 15
14 17
14 18
14 20
14 25
14 26
15 22
15 24
16 18
17 18
17 20
18 22
18 23
18 25
19 23
20 27
21 26
22 25
22 27
23 25
23 26
24 27
25 27
26 27
-1
VERTEX_DEGREE:
9.0 10.0 6.0 10.0 6.0 9.0 6.0 9.0 6.0 8.0 6.0 12.0 4.0 6.0 7.0 6.0 4.0 5.0 13.0 5.0 6.0 4.0 6.0 9.0 7.0 9.0 10.0 10.0 2.0
VERTEX_COVER:
1 2 3 4 5 7 8 9 10 11 12 14 18 20 22 23 24 25 26
EOF
